unsat
( c0
  c1
  c2
  c203
  c204
  c206
  c207
  c213
  c216
  c221
  c226
  c231
  c236
  c242
  c248
  c254
  c26
  c260
  c266
  c272
  c280
  c285
  c290
  c295
  c3
  c300
  c305
  c311
  c317
  c323
  c329
  c33
  c335
  c339
  c37
  c4
  c40
  c42
  c44
  c676
  c687
  c693
  c697
  c777
  c778 )
